40
1 0 2
2 0 6
2 1 5
3 0 6
3 1 11
3 2 4
4 0 5
4 1 2
4 2 2
4 3 5
5 0 11
5 1 8
5 2 6
5 3 9
5 4 3
6 0 5
6 1 9
6 2 1
6 3 4
6 4 8
6 5 1
7 0 11
7 1 1
7 2 2
7 3 4
7 4 1
7 5 10
7 6 10
8 0 4
8 1 1
8 2 9
8 3 9
8 4 4
8 5 8
8 6 8
8 7 6
9 0 8
9 1 9
9 2 1
9 3 2
9 4 8
9 5 9
9 6 11
9 7 11
9 8 6
10 0 11
10 1 1
10 2 2
10 3 6
10 4 7
10 5 6
10 6 6
10 7 2
10 8 10
10 9 2
11 0 7
11 1 9
11 2 11
11 3 10
11 4 4
11 5 7
11 6 3
11 7 10
11 8 10
11 9 1
11 10 11
12 0 6
12 1 10
12 2 3
12 3 1
12 4 7
12 5 3
12 6 2
12 7 2
12 8 5
12 9 2
12 10 8
12 11 1
13 0 11
13 1 6
13 2 9
13 3 7
13 4 2
13 5 10
13 6 4
13 7 8
13 8 6
13 9 11
13 10 7
13 11 4
13 12 8
14 0 8
14 1 11
14 2 9
14 3 10
14 4 8
14 5 9
14 6 9
14 7 6
14 8 3
14 9 4
14 10 9
14 11 11
14 12 5
14 13 7
15 0 8
15 1 11
15 2 3
15 3 5
15 4 6
15 5 7
15 6 6
15 7 10
15 8 9
15 9 5
15 10 4
15 11 1
15 12 2
15 13 8
15 14 9
16 0 11
16 1 9
16 2 2
16 3 8
16 4 11
16 5 9
16 6 11
16 7 8
16 8 5
16 9 10
16 10 9
16 11 11
16 12 5
16 13 6
16 14 5
16 15 4
17 0 4
17 1 9
17 2 2
17 3 4
17 4 11
17 5 5
17 6 10
17 7 5
17 8 4
17 9 4
17 10 5
17 11 2
17 12 1
17 13 9
17 14 11
17 15 10
17 16 9
18 0 5
18 1 10
18 2 10
18 3 7
18 4 8
18 5 6
18 6 6
18 7 4
18 8 6
18 9 8
18 10 1
18 11 4
18 12 4
18 13 10
18 14 4
18 15 10
18 16 9
18 17 9
19 0 6
19 1 8
19 2 4
19 3 11
19 4 4
19 5 2
19 6 6
19 7 10
19 8 8
19 9 8
19 10 6
19 11 1
19 12 11
19 13 9
19 14 3
19 15 10
19 16 8
19 17 4
19 18 10
20 0 4
20 1 2
20 2 11
20 3 2
20 4 7
20 5 4
20 6 3
20 7 5
20 8 4
20 9 6
20 10 2
20 11 2
20 12 4
20 13 3
20 14 6
20 15 11
20 16 2
20 17 7
20 18 5
20 19 6
21 0 4
21 1 1
21 2 6
21 3 8
21 4 10
21 5 7
21 6 4
21 7 8
21 8 4
21 9 2
21 10 11
21 11 9
21 12 10
21 13 8
21 14 11
21 15 8
21 16 2
21 17 8
21 18 8
21 19 2
21 20 7
22 0 7
22 1 2
22 2 10
22 3 2
22 4 3
22 5 6
22 6 4
22 7 8
22 8 5
22 9 5
22 10 4
22 11 6
22 12 2
22 13 6
22 14 2
22 15 8
22 16 11
22 17 6
22 18 9
22 19 10
22 20 10
22 21 4
23 0 1
23 1 11
23 2 6
23 3 4
23 4 9
23 5 10
23 6 10
23 7 4
23 8 1
23 9 2
23 10 7
23 11 8
23 12 8
23 13 1
23 14 5
23 15 10
23 16 8
23 17 10
23 18 9
23 19 5
23 20 1
23 21 9
23 22 2
24 0 6
24 1 8
24 2 11
24 3 3
24 4 10
24 5 11
24 6 3
24 7 10
24 8 7
24 9 8
24 10 11
24 11 10
24 12 7
24 13 5
24 14 11
24 15 8
24 16 10
24 17 4
24 18 1
24 19 1
24 20 1
24 21 1
24 22 10
24 23 2
25 0 1
25 1 2
25 2 9
25 3 4
25 4 8
25 5 1
25 6 11
25 7 4
25 8 7
25 9 5
25 10 2
25 11 10
25 12 4
25 13 1
25 14 2
25 15 6
25 16 8
25 17 10
25 18 5
25 19 1
25 20 6
25 21 3
25 22 9
25 23 4
25 24 2
26 0 3
26 1 1
26 2 7
26 3 10
26 4 11
26 5 8
26 6 6
26 7 3
26 8 11
26 9 3
26 10 7
26 11 1
26 12 10
26 13 8
26 14 9
26 15 8
26 16 7
26 17 9
26 18 11
26 19 1
26 20 10
26 21 3
26 22 7
26 23 9
26 24 2
26 25 2
27 0 1
27 1 6
27 2 10
27 3 1
27 4 11
27 5 8
27 6 8
27 7 1
27 8 3
27 9 10
27 10 7
27 11 11
27 12 10
27 13 9
27 14 1
27 15 9
27 16 2
27 17 6
27 18 1
27 19 2
27 20 5
27 21 7
27 22 3
27 23 3
27 24 9
27 25 6
27 26 8
28 0 3
28 1 11
28 2 7
28 3 9
28 4 1
28 5 8
28 6 7
28 7 7
28 8 3
28 9 11
28 10 1
28 11 3
28 12 6
28 13 10
28 14 2
28 15 10
28 16 7
28 17 4
28 18 5
28 19 2
28 20 4
28 21 7
28 22 6
28 23 11
28 24 5
28 25 2
28 26 1
28 27 2
29 0 7
29 1 2
29 2 4
29 3 5
29 4 4
29 5 8
29 6 9
29 7 5
29 8 11
29 9 4
29 10 7
29 11 6
29 12 4
29 13 6
29 14 5
29 15 2
29 16 11
29 17 8
29 18 10
29 19 7
29 20 8
29 21 10
29 22 11
29 23 8
29 24 5
29 25 5
29 26 9
29 27 11
29 28 6
30 0 1
30 1 2
30 2 4
30 3 7
30 4 11
30 5 1
30 6 4
30 7 9
30 8 7
30 9 5
30 10 1
30 11 10
30 12 2
30 13 8
30 14 10
30 15 7
30 16 8
30 17 7
30 18 10
30 19 4
30 20 5
30 21 1
30 22 9
30 23 6
30 24 1
30 25 6
30 26 9
30 27 1
30 28 8
30 29 1
31 0 1
31 1 4
31 2 2
31 3 8
31 4 10
31 5 10
31 6 3
31 7 4
31 8 2
31 9 1
31 10 9
31 11 5
31 12 1
31 13 4
31 14 4
31 15 7
31 16 10
31 17 10
31 18 3
31 19 10
31 20 7
31 21 3
31 22 11
31 23 8
31 24 8
31 25 3
31 26 2
31 27 1
31 28 8
31 29 3
31 30 3
32 0 11
32 1 1
32 2 7
32 3 10
32 4 1
32 5 1
32 6 2
32 7 10
32 8 5
32 9 9
32 10 3
32 11 8
32 12 10
32 13 10
32 14 9
32 15 11
32 16 2
32 17 7
32 18 10
32 19 9
32 20 11
32 21 6
32 22 7
32 23 7
32 24 6
32 25 3
32 26 1
32 27 10
32 28 6
32 29 6
32 30 5
32 31 6
33 0 8
33 1 2
33 2 6
33 3 10
33 4 11
33 5 11
33 6 11
33 7 1
33 8 6
33 9 4
33 10 1
33 11 1
33 12 6
33 13 11
33 14 3
33 15 10
33 16 7
33 17 9
33 18 8
33 19 4
33 20 1
33 21 2
33 22 1
33 23 5
33 24 1
33 25 6
33 26 2
33 27 6
33 28 7
33 29 2
33 30 11
33 31 4
33 32 5
34 0 11
34 1 1
34 2 1
34 3 5
34 4 9
34 5 9
34 6 4
34 7 5
34 8 11
34 9 2
34 10 7
34 11 1
34 12 2
34 13 2
34 14 5
34 15 3
34 16 1
34 17 4
34 18 6
34 19 5
34 20 10
34 21 10
34 22 11
34 23 5
34 24 2
34 25 2
34 26 5
34 27 9
34 28 2
34 29 4
34 30 11
34 31 6
34 32 8
34 33 8
35 0 10
35 1 5
35 2 5
35 3 7
35 4 3
35 5 5
35 6 9
35 7 7
35 8 1
35 9 7
35 10 7
35 11 8
35 12 11
35 13 6
35 14 4
35 15 10
35 16 1
35 17 7
35 18 6
35 19 4
35 20 3
35 21 2
35 22 6
35 23 9
35 24 6
35 25 1
35 26 9
35 27 11
35 28 10
35 29 4
35 30 8
35 31 2
35 32 4
35 33 5
35 34 4
36 0 6
36 1 10
36 2 6
36 3 8
36 4 8
36 5 4
36 6 3
36 7 10
36 8 3
36 9 9
36 10 6
36 11 3
36 12 11
36 13 5
36 14 2
36 15 4
36 16 11
36 17 8
36 18 3
36 19 8
36 20 11
36 21 6
36 22 2
36 23 7
36 24 9
36 25 9
36 26 2
36 27 6
36 28 6
36 29 9
36 30 8
36 31 10
36 32 5
36 33 1
36 34 8
36 35 8
37 0 5
37 1 11
37 2 1
37 3 8
37 4 4
37 5 11
37 6 7
37 7 7
37 8 5
37 9 8
37 10 7
37 11 9
37 12 11
37 13 9
37 14 2
37 15 11
37 16 3
37 17 5
37 18 1
37 19 9
37 20 10
37 21 6
37 22 10
37 23 10
37 24 2
37 25 4
37 26 4
37 27 7
37 28 4
37 29 8
37 30 6
37 31 1
37 32 11
37 33 4
37 34 2
37 35 9
37 36 9
38 0 9
38 1 7
38 2 8
38 3 4
38 4 8
38 5 3
38 6 8
38 7 10
38 8 4
38 9 4
38 10 5
38 11 6
38 12 11
38 13 3
38 14 10
38 15 6
38 16 10
38 17 5
38 18 3
38 19 4
38 20 1
38 21 6
38 22 9
38 23 3
38 24 5
38 25 8
38 26 1
38 27 4
38 28 4
38 29 1
38 30 3
38 31 7
38 32 7
38 33 1
38 34 11
38 35 6
38 36 8
38 37 3
39 0 10
39 1 7
39 2 2
39 3 7
39 4 11
39 5 1
39 6 2
39 7 3
39 8 5
39 9 10
39 10 7
39 11 1
39 12 4
39 13 8
39 14 6
39 15 11
39 16 9
39 17 7
39 18 9
39 19 10
39 20 2
39 21 3
39 22 7
39 23 6
39 24 8
39 25 7
39 26 2
39 27 3
39 28 11
39 29 3
39 30 3
39 31 7
39 32 3
39 33 3
39 34 9
39 35 8
39 36 2
39 37 3
39 38 2
